TOUR:
 1 36 23 38 69 31 13 29 70 35 59 22 63 66 53 5 10 52 60 12 34 21 17 43 41 6 42 18 4 3 32 7 2 57 15 24 19 55 49 26 8 28 14 20 30 44 68 9 27 46 40 61 45 25 39 62 54 33 67 48 11 64 65 56 51 50 58 37 47 16
COST = 691
